p tw 34 150
0 1
0 2
0 3
0 11
0 13
0 16
0 18
0 25
1 2
1 3
1 6
1 9
1 23
1 10
1 26
1 5
1 13
1 17
1 28
1 33
2 3
2 7
2 13
2 14
3 4
3 5
3 6
3 19
3 20
3 10
3 26
4 5
4 6
4 7
4 8
5 6
5 10
5 15
5 16
5 8
5 21
5 22
5 9
5 13
5 14
5 23
5 28
6 7
6 17
6 18
6 9
6 15
6 23
6 12
6 25
6 29
6 14
6 20
7 8
7 13
7 14
7 17
7 18
7 9
7 15
7 23
7 24
7 25
8 21
8 22
8 19
8 26
8 30
9 10
9 11
9 12
9 14
9 15
9 23
9 18
9 20
9 28
9 13
9 24
9 25
10 11
10 12
10 15
10 16
10 26
10 18
10 25
10 32
10 27
10 28
11 12
11 13
12 25
12 29
12 14
12 20
13 14
13 18
13 29
13 33
14 15
14 23
14 28
14 20
15 16
16 19
16 25
16 26
16 21
16 27
16 28
16 18
17 18
17 28
17 33
18 20
18 28
18 25
18 32
18 27
18 29
18 33
19 20
19 25
19 26
19 30
19 31
20 28
21 22
21 27
21 28
23 24
23 25
23 28
24 25
24 28
25 26
25 29
25 28
25 32
26 30
27 28
28 33
29 33
30 31
